WARNING: for repeatability, setting FPU to use double precision
============================[ Problem Statistics ]=============================
|                                                                             |
|  Number of variables:            50                                         |
|  Number of clauses:             218                                         |
|  Parse time:                   0.00 s                                       |
|                                                                             |
============================[ Search Statistics ]==============================
| Conflicts |          ORIGINAL         |          LEARNT          | Progress |
|           |    Vars  Clauses Literals |    Limit  Clauses Lit/Cl |          |
===============================================================================
===============================================================================
restarts              : 1
conflicts             : 33             (23656 /sec)
decisions             : 39             (0.00 % random) (27957 /sec)
propagations          : 461            (330466 /sec)
conflict literals     : 96             (22.58 % deleted)
Memory used           : 20.00 MB
CPU time              : 0.001395 s

UNSATISFIABLE
